p cnf 287 2136
63 114 115 121 128 0
136 142 218 0
87 138 220 0
146 226 0
84 108 0
37 95 131 149 0
86 92 158 162 231 0
34 83 103 0
80 110 169 177 0
157 161 174 234 0
57 91 179 242 247 0
106 135 180 251 0
99 181 199 0
125 258 276 0
154 190 191 0
170 184 0
126 166 178 192 0
69 71 74 76 77 173 0
65 112 116 120 124 0
58 60 62 144 0
55 90 134 137 141 0
51 52 54 0
50 155 164 182 0
41 42 44 45 47 49 0
40 107 186 0
36 39 94 96 145 153 0
32 35 79 93 97 0
31 81 160 175 0
30 67 73 172 0
29 64 109 0
27 28 56 61 152 0
88 139 0
98 100 104 127 194 0
165 196 0
197 201 0
202 203 204 205 206 0
171 185 193 208 0
78 167 209 0
210 211 212 0
129 215 0
213 217 272 0
48 147 183 219 0
46 187 221 224 0
38 132 150 225 227 0
117 122 188 222 228 229 0
85 230 0
130 148 176 0
159 163 232 0
89 156 233 235 0
105 140 237 0
101 195 238 240 0
241 243 246 248 249 0
250 252 0
244 253 254 0
-75 -115 0
-59 -75 0
-75 -136 0
-75 -87 0
-53 -75 0
-59 -115 0
-115 -136 0
-87 -115 0
-53 -115 0
-59 -136 0
-59 -87 0
-53 -59 0
-87 -136 0
-53 -136 0
-53 -87 0
-199 -255 0
-199 -258 0
-198 -199 0
-190 -199 0
-199 -257 0
-255 -258 0
-198 -255 0
-190 -255 0
-255 -257 0
-198 -258 0
-190 -258 0
-257 -258 0
-190 -198 0
-198 -257 0
-190 -257 0
-173 -178 0
-65 -178 0
-62 -178 0
-90 -178 0
-143 -178 0
-65 -173 0
-62 -173 0
-90 -173 0
-143 -173 0
-62 -65 0
-65 -90 0
-65 -143 0
-62 -90 0
-62 -143 0
-90 -143 0
-40 -153 0
-40 -133 0
-40 -118 0
-40 -97 0
-40 -81 0
-133 -153 0
-118 -153 0
-97 -153 0
-81 -153 0
-118 -133 0
-97 -133 0
-81 -133 0
-97 -118 0
-81 -118 0
-81 -97 0
-208 -261 0
-209 -261 0
-261 -262 0
-261 -263 0
-210 -261 0
-208 -209 0
-208 -262 0
-208 -263 0
-208 -210 0
-209 -262 0
-209 -263 0
-209 -210 0
-262 -263 0
-210 -262 0
-210 -263 0
-46 -183 0
-183 -264 0
-183 -225 0
-183 -228 0
-183 -230 0
-46 -264 0
-46 -225 0
-46 -228 0
-46 -230 0
-225 -264 0
-228 -264 0
-230 -264 0
-225 -228 0
-225 -230 0
-228 -230 0
-75 -199 0
-75 -178 0
-40 -75 0
-75 -261 0
-75 -183 0
-178 -199 0
-40 -199 0
-199 -261 0
-183 -199 0
-40 -178 0
-178 -261 0
-178 -183 0
-40 -261 0
-40 -183 0
-183 -261 0
-115 -255 0
-115 -173 0
-115 -153 0
-115 -208 0
-46 -115 0
-173 -255 0
-153 -255 0
-208 -255 0
-46 -255 0
-153 -173 0
-173 -208 0
-46 -173 0
-153 -208 0
-46 -153 0
-46 -208 0
-59 -258 0
-59 -65 0
-59 -133 0
-59 -209 0
-59 -264 0
-65 -258 0
-133 -258 0
-209 -258 0
-258 -264 0
-65 -133 0
-65 -209 0
-65 -264 0
-133 -209 0
-133 -264 0
-209 -264 0
-136 -198 0
-62 -136 0
-118 -136 0
-136 -262 0
-136 -225 0
-62 -198 0
-118 -198 0
-198 -262 0
-198 -225 0
-62 -118 0
-62 -262 0
-62 -225 0
-118 -262 0
-118 -225 0
-225 -262 0
-87 -190 0
-87 -90 0
-87 -97 0
-87 -263 0
-87 -228 0
-90 -190 0
-97 -190 0
-190 -263 0
-190 -228 0
-90 -97 0
-90 -263 0
-90 -228 0
-97 -263 0
-97 -228 0
-228 -263 0
-53 -257 0
-53 -143 0
-53 -81 0
-53 -210 0
-53 -230 0
-143 -257 0
-81 -257 0
-210 -257 0
-230 -257 0
-81 -143 0
-143 -210 0
-143 -230 0
-81 -210 0
-81 -230 0
-210 -230 0
-72 -121 0
-72 -146 0
-43 -72 0
-72 -108 0
-121 -146 0
-43 -121 0
-108 -121 0
-43 -146 0
-108 -146 0
-43 -108 0
-92 -95 0
-95 -265 0
-57 -95 0
-95 -135 0
-92 -265 0
-57 -92 0
-92 -135 0
-57 -265 0
-135 -265 0
-57 -135 0
-77 -192 0
-192 -266 0
-54 -192 0
-164 -192 0
-49 -192 0
-77 -266 0
-54 -77 0
-77 -164 0
-49 -77 0
-54 -266 0
-164 -266 0
-49 -266 0
-54 -164 0
-49 -54 0
-49 -164 0
-39 -186 0
-175 -186 0
-172 -186 0
-64 -186 0
-61 -186 0
-39 -175 0
-39 -172 0
-39 -64 0
-39 -61 0
-172 -175 0
-64 -175 0
-61 -175 0
-64 -172 0
-61 -172 0
-61 -64 0
-88 -104 0
-88 -267 0
-88 -268 0
-88 -269 0
-88 -202 0
-104 -267 0
-104 -268 0
-104 -269 0
-104 -202 0
-267 -268 0
-267 -269 0
-202 -267 0
-268 -269 0
-202 -268 0
-202 -269 0
-200 -254 0
-200 -259 0
-254 -259 0
-72 -95 0
-72 -192 0
-72 -186 0
-72 -88 0
-95 -192 0
-95 -186 0
-88 -95 0
-186 -192 0
-88 -192 0
-88 -186 0
-92 -121 0
-77 -121 0
-39 -121 0
-104 -121 0
-77 -92 0
-39 -92 0
-92 -104 0
-39 -77 0
-77 -104 0
-39 -104 0
-175 -266 0
-266 -267 0
-175 -267 0
-146 -265 0
-54 -146 0
-146 -172 0
-146 -268 0
-146 -200 0
-54 -265 0
-172 -265 0
-265 -268 0
-200 -265 0
-54 -172 0
-54 -268 0
-54 -200 0
-172 -268 0
-172 -200 0
-200 -268 0
-43 -57 0
-43 -164 0
-43 -64 0
-43 -269 0
-43 -254 0
-57 -164 0
-57 -64 0
-57 -269 0
-57 -254 0
-64 -164 0
-164 -269 0
-164 -254 0
-64 -269 0
-64 -254 0
-254 -269 0
-108 -135 0
-49 -108 0
-61 -108 0
-108 -202 0
-108 -259 0
-49 -135 0
-61 -135 0
-135 -202 0
-135 -259 0
-49 -61 0
-49 -202 0
-49 -259 0
-61 -202 0
-61 -259 0
-202 -259 0
-47 -134 0
-28 -35 0
-35 -134 0
-28 -47 0
-128 -270 0
-270 -273 0
-218 -270 0
-220 -270 0
-216 -270 0
-223 -270 0
-128 -273 0
-128 -218 0
-128 -220 0
-128 -216 0
-128 -223 0
-218 -273 0
-220 -273 0
-216 -273 0
-223 -273 0
-218 -220 0
-216 -218 0
-218 -223 0
-216 -220 0
-220 -223 0
-216 -223 0
-37 -158 0
-37 -103 0
-37 -110 0
-37 -157 0
-37 -68 0
-37 -242 0
-103 -158 0
-110 -158 0
-157 -158 0
-68 -158 0
-158 -242 0
-103 -110 0
-103 -157 0
-68 -103 0
-103 -242 0
-110 -157 0
-68 -110 0
-110 -242 0
-68 -157 0
-157 -242 0
-68 -242 0
-99 -245 0
-99 -276 0
-99 -274 0
-99 -191 0
-99 -275 0
-99 -207 0
-245 -276 0
-245 -274 0
-191 -245 0
-245 -275 0
-207 -245 0
-274 -276 0
-191 -276 0
-275 -276 0
-207 -276 0
-191 -274 0
-274 -275 0
-207 -274 0
-191 -275 0
-191 -207 0
-207 -275 0
-76 -126 0
-124 -126 0
-60 -126 0
-55 -126 0
-126 -278 0
-76 -124 0
-60 -76 0
-55 -76 0
-76 -278 0
-60 -124 0
-55 -124 0
-124 -278 0
-55 -60 0
-60 -278 0
-55 -278 0
-94 -107 0
-107 -151 0
-107 -123 0
-32 -107 0
-31 -107 0
-94 -151 0
-94 -123 0
-32 -94 0
-31 -94 0
-123 -151 0
-32 -151 0
-31 -151 0
-32 -123 0
-31 -123 0
-31 -32 0
-171 -279 0
-167 -279 0
-70 -279 0
-113 -279 0
-211 -279 0
-167 -171 0
-70 -171 0
-113 -171 0
-171 -211 0
-70 -167 0
-113 -167 0
-167 -211 0
-70 -113 0
-70 -211 0
-113 -211 0
-233 -280 0
-140 -280 0
-195 -280 0
-241 -280 0
-250 -280 0
-140 -233 0
-195 -233 0
-233 -241 0
-233 -250 0
-140 -195 0
-140 -241 0
-140 -250 0
-195 -241 0
-195 -250 0
-241 -250 0
-37 -270 0
-99 -270 0
-126 -270 0
-107 -270 0
-270 -279 0
-270 -280 0
-37 -99 0
-37 -126 0
-37 -107 0
-37 -279 0
-37 -280 0
-99 -126 0
-99 -107 0
-99 -279 0
-99 -280 0
-107 -126 0
-126 -279 0
-126 -280 0
-107 -279 0
-107 -280 0
-279 -280 0
-128 -158 0
-128 -245 0
-76 -128 0
-94 -128 0
-128 -171 0
-128 -233 0
-158 -245 0
-76 -158 0
-94 -158 0
-158 -171 0
-158 -233 0
-76 -245 0
-94 -245 0
-171 -245 0
-233 -245 0
-76 -94 0
-76 -171 0
-76 -233 0
-94 -171 0
-94 -233 0
-171 -233 0
-103 -273 0
-273 -276 0
-124 -273 0
-151 -273 0
-167 -273 0
-140 -273 0
-103 -276 0
-103 -124 0
-103 -151 0
-103 -167 0
-103 -140 0
-124 -276 0
-151 -276 0
-167 -276 0
-140 -276 0
-124 -151 0
-124 -167 0
-124 -140 0
-151 -167 0
-140 -151 0
-140 -167 0
-110 -218 0
-218 -274 0
-60 -218 0
-123 -218 0
-70 -218 0
-195 -218 0
-110 -274 0
-60 -110 0
-110 -123 0
-70 -110 0
-110 -195 0
-60 -274 0
-123 -274 0
-70 -274 0
-195 -274 0
-60 -123 0
-60 -70 0
-60 -195 0
-70 -123 0
-123 -195 0
-70 -195 0
-157 -220 0
-191 -220 0
-55 -220 0
-32 -220 0
-113 -220 0
-220 -241 0
-157 -191 0
-55 -157 0
-32 -157 0
-113 -157 0
-157 -241 0
-55 -191 0
-32 -191 0
-113 -191 0
-191 -241 0
-32 -55 0
-55 -113 0
-55 -241 0
-32 -113 0
-32 -241 0
-113 -241 0
-68 -216 0
-216 -275 0
-216 -278 0
-31 -216 0
-211 -216 0
-216 -250 0
-68 -275 0
-68 -278 0
-31 -68 0
-68 -211 0
-68 -250 0
-275 -278 0
-31 -275 0
-211 -275 0
-250 -275 0
-31 -278 0
-211 -278 0
-250 -278 0
-31 -211 0
-31 -250 0
-211 -250 0
-223 -242 0
-207 -223 0
-207 -242 0
-63 -66 0
-66 -142 0
-66 -138 0
-63 -142 0
-63 -138 0
-138 -142 0
-131 -162 0
-80 -131 0
-131 -161 0
-80 -162 0
-161 -162 0
-80 -161 0
-45 -182 0
-185 -281 0
-271 -281 0
-119 -281 0
-129 -281 0
-272 -281 0
-185 -271 0
-119 -185 0
-129 -185 0
-185 -272 0
-119 -271 0
-129 -271 0
-271 -272 0
-119 -129 0
-119 -272 0
-129 -272 0
-219 -221 0
-38 -219 0
-219 -222 0
-159 -219 0
-102 -219 0
-38 -221 0
-221 -222 0
-159 -221 0
-102 -221 0
-38 -222 0
-38 -159 0
-38 -102 0
-159 -222 0
-102 -222 0
-102 -159 0
-111 -156 0
-101 -111 0
-111 -243 0
-111 -244 0
-111 -277 0
-101 -156 0
-156 -243 0
-156 -244 0
-156 -277 0
-101 -243 0
-101 -244 0
-101 -277 0
-243 -244 0
-243 -277 0
-244 -277 0
-66 -131 0
-66 -281 0
-66 -219 0
-66 -111 0
-131 -281 0
-131 -219 0
-111 -131 0
-219 -281 0
-111 -281 0
-111 -219 0
-63 -162 0
-63 -185 0
-63 -221 0
-63 -156 0
-162 -185 0
-162 -221 0
-156 -162 0
-185 -221 0
-156 -185 0
-156 -221 0
-80 -142 0
-142 -271 0
-38 -142 0
-101 -142 0
-80 -271 0
-38 -80 0
-80 -101 0
-38 -271 0
-101 -271 0
-38 -101 0
-138 -161 0
-119 -138 0
-138 -222 0
-138 -243 0
-119 -161 0
-161 -222 0
-161 -243 0
-119 -222 0
-119 -243 0
-222 -243 0
-129 -182 0
-159 -182 0
-182 -244 0
-129 -159 0
-129 -244 0
-159 -244 0
-45 -272 0
-45 -102 0
-45 -277 0
-102 -272 0
-272 -277 0
-102 -277 0
-114 -214 0
-114 -226 0
-114 -189 0
-84 -114 0
-214 -226 0
-189 -214 0
-84 -214 0
-189 -226 0
-84 -226 0
-84 -189 0
-83 -86 0
-86 -239 0
-86 -247 0
-86 -251 0
-83 -239 0
-83 -247 0
-83 -251 0
-239 -247 0
-239 -251 0
-247 -251 0
-74 -116 0
-58 -74 0
-74 -137 0
-52 -74 0
-50 -74 0
-44 -74 0
-58 -116 0
-116 -137 0
-52 -116 0
-50 -116 0
-44 -116 0
-58 -137 0
-52 -58 0
-50 -58 0
-44 -58 0
-52 -137 0
-50 -137 0
-44 -137 0
-50 -52 0
-44 -52 0
-44 -50 0
-145 -282 0
-145 -283 0
-93 -145 0
-30 -145 0
-29 -145 0
-145 -152 0
-282 -283 0
-93 -282 0
-30 -282 0
-29 -282 0
-152 -282 0
-93 -283 0
-30 -283 0
-29 -283 0
-152 -283 0
-30 -93 0
-29 -93 0
-93 -152 0
-29 -30 0
-30 -152 0
-29 -152 0
-98 -256 0
-98 -165 0
-98 -197 0
-98 -260 0
-98 -284 0
-98 -203 0
-165 -256 0
-197 -256 0
-256 -260 0
-256 -284 0
-203 -256 0
-165 -197 0
-165 -260 0
-165 -284 0
-165 -203 0
-197 -260 0
-197 -284 0
-197 -203 0
-260 -284 0
-203 -260 0
-203 -284 0
-117 -132 0
-130 -132 0
-132 -163 0
-132 -285 0
-117 -130 0
-117 -163 0
-117 -285 0
-130 -163 0
-130 -285 0
-163 -285 0
-238 -246 0
-238 -286 0
-238 -253 0
-238 -287 0
-246 -286 0
-246 -253 0
-246 -287 0
-253 -286 0
-286 -287 0
-253 -287 0
-86 -114 0
-74 -114 0
-114 -145 0
-98 -114 0
-74 -86 0
-86 -145 0
-86 -98 0
-74 -145 0
-74 -98 0
-98 -145 0
-83 -214 0
-116 -214 0
-214 -282 0
-214 -256 0
-83 -116 0
-83 -282 0
-83 -256 0
-116 -282 0
-116 -256 0
-256 -282 0
-58 -283 0
-58 -165 0
-58 -132 0
-58 -238 0
-165 -283 0
-132 -283 0
-238 -283 0
-132 -165 0
-165 -238 0
-132 -238 0
-93 -137 0
-137 -197 0
-117 -137 0
-137 -246 0
-93 -197 0
-93 -117 0
-93 -246 0
-117 -197 0
-197 -246 0
-117 -246 0
-226 -239 0
-52 -226 0
-30 -226 0
-226 -260 0
-130 -226 0
-226 -286 0
-52 -239 0
-30 -239 0
-239 -260 0
-130 -239 0
-239 -286 0
-30 -52 0
-52 -260 0
-52 -130 0
-52 -286 0
-30 -260 0
-30 -130 0
-30 -286 0
-130 -260 0
-260 -286 0
-130 -286 0
-189 -247 0
-50 -189 0
-29 -189 0
-189 -284 0
-163 -189 0
-189 -253 0
-50 -247 0
-29 -247 0
-247 -284 0
-163 -247 0
-247 -253 0
-29 -50 0
-50 -284 0
-50 -163 0
-50 -253 0
-29 -284 0
-29 -163 0
-29 -253 0
-163 -284 0
-253 -284 0
-163 -253 0
-84 -251 0
-44 -84 0
-84 -152 0
-84 -203 0
-84 -285 0
-84 -287 0
-44 -251 0
-152 -251 0
-203 -251 0
-251 -285 0
-251 -287 0
-44 -152 0
-44 -203 0
-44 -285 0
-44 -287 0
-152 -203 0
-152 -285 0
-152 -287 0
-203 -285 0
-203 -287 0
-285 -287 0
-169 -234 0
-169 -236 0
-234 -236 0
-71 -120 0
-71 -144 0
-71 -141 0
-26 -71 0
-51 -71 0
-42 -71 0
-120 -144 0
-120 -141 0
-26 -120 0
-51 -120 0
-42 -120 0
-141 -144 0
-26 -144 0
-51 -144 0
-42 -144 0
-26 -141 0
-51 -141 0
-42 -141 0
-26 -51 0
-26 -42 0
-42 -51 0
-25 -96 0
-24 -96 0
-79 -96 0
-96 -160 0
-73 -96 0
-56 -96 0
-24 -25 0
-25 -79 0
-25 -160 0
-25 -73 0
-25 -56 0
-24 -79 0
-24 -160 0
-24 -73 0
-24 -56 0
-79 -160 0
-73 -79 0
-56 -79 0
-73 -160 0
-56 -160 0
-56 -73 0
-23 -127 0
-127 -196 0
-127 -201 0
-22 -127 0
-21 -127 0
-127 -204 0
-23 -196 0
-23 -201 0
-22 -23 0
-21 -23 0
-23 -204 0
-196 -201 0
-22 -196 0
-21 -196 0
-196 -204 0
-22 -201 0
-21 -201 0
-201 -204 0
-21 -22 0
-22 -204 0
-21 -204 0
-78 -193 0
-20 -193 0
-19 -193 0
-193 -212 0
-18 -193 0
-193 -213 0
-20 -78 0
-19 -78 0
-78 -212 0
-18 -78 0
-78 -213 0
-19 -20 0
-20 -212 0
-18 -20 0
-20 -213 0
-19 -212 0
-18 -19 0
-19 -213 0
-18 -212 0
-212 -213 0
-18 -213 0
-17 -187 0
-187 -227 0
-187 -188 0
-85 -187 0
-176 -187 0
-82 -187 0
-17 -227 0
-17 -188 0
-17 -85 0
-17 -176 0
-17 -82 0
-188 -227 0
-85 -227 0
-176 -227 0
-82 -227 0
-85 -188 0
-176 -188 0
-82 -188 0
-85 -176 0
-82 -85 0
-82 -176 0
-89 -105 0
-89 -240 0
-89 -248 0
-89 -252 0
-16 -89 0
-15 -89 0
-105 -240 0
-105 -248 0
-105 -252 0
-16 -105 0
-15 -105 0
-240 -248 0
-240 -252 0
-16 -240 0
-15 -240 0
-248 -252 0
-16 -248 0
-15 -248 0
-16 -252 0
-15 -252 0
-15 -16 0
-71 -96 0
-71 -127 0
-71 -193 0
-71 -187 0
-71 -89 0
-96 -127 0
-96 -193 0
-96 -187 0
-89 -96 0
-127 -193 0
-127 -187 0
-89 -127 0
-187 -193 0
-89 -193 0
-89 -187 0
-25 -120 0
-23 -120 0
-78 -120 0
-17 -120 0
-105 -120 0
-23 -25 0
-25 -78 0
-17 -25 0
-25 -105 0
-23 -78 0
-17 -23 0
-23 -105 0
-17 -78 0
-78 -105 0
-17 -105 0
-144 -169 0
-24 -169 0
-169 -196 0
-20 -169 0
-169 -227 0
-169 -240 0
-24 -144 0
-144 -196 0
-20 -144 0
-144 -227 0
-144 -240 0
-24 -196 0
-20 -24 0
-24 -227 0
-24 -240 0
-20 -196 0
-196 -227 0
-196 -240 0
-20 -227 0
-20 -240 0
-227 -240 0
-141 -234 0
-79 -234 0
-201 -234 0
-19 -234 0
-188 -234 0
-234 -248 0
-79 -141 0
-141 -201 0
-19 -141 0
-141 -188 0
-141 -248 0
-79 -201 0
-19 -79 0
-79 -188 0
-79 -248 0
-19 -201 0
-188 -201 0
-201 -248 0
-19 -188 0
-19 -248 0
-188 -248 0
-26 -236 0
-160 -236 0
-22 -236 0
-212 -236 0
-85 -236 0
-236 -252 0
-26 -160 0
-22 -26 0
-26 -212 0
-26 -85 0
-26 -252 0
-22 -160 0
-160 -212 0
-85 -160 0
-160 -252 0
-22 -212 0
-22 -85 0
-22 -252 0
-85 -212 0
-212 -252 0
-85 -252 0
-51 -73 0
-21 -51 0
-18 -51 0
-51 -176 0
-16 -51 0
-21 -73 0
-18 -73 0
-73 -176 0
-16 -73 0
-18 -21 0
-21 -176 0
-16 -21 0
-18 -176 0
-16 -18 0
-16 -176 0
-42 -56 0
-42 -204 0
-42 -213 0
-42 -82 0
-15 -42 0
-56 -204 0
-56 -213 0
-56 -82 0
-15 -56 0
-204 -213 0
-82 -204 0
-15 -204 0
-82 -213 0
-15 -213 0
-15 -82 0
-149 -231 0
-34 -149 0
-149 -179 0
-149 -180 0
-34 -231 0
-179 -231 0
-180 -231 0
-34 -179 0
-34 -180 0
-179 -180 0
-14 -181 0
-125 -181 0
-13 -181 0
-170 -181 0
-14 -125 0
-13 -14 0
-14 -170 0
-13 -125 0
-125 -170 0
-13 -170 0
-69 -166 0
-112 -166 0
-155 -166 0
-41 -166 0
-69 -112 0
-69 -155 0
-41 -69 0
-112 -155 0
-41 -112 0
-41 -155 0
-139 -194 0
-12 -139 0
-11 -139 0
-139 -205 0
-12 -194 0
-11 -194 0
-194 -205 0
-11 -12 0
-12 -205 0
-11 -205 0
-48 -224 0
-10 -48 0
-48 -229 0
-10 -224 0
-224 -229 0
-10 -229 0
-168 -235 0
-168 -237 0
-168 -249 0
-235 -237 0
-235 -249 0
-237 -249 0
-149 -181 0
-149 -166 0
-139 -149 0
-48 -149 0
-149 -168 0
-166 -181 0
-139 -181 0
-48 -181 0
-168 -181 0
-139 -166 0
-48 -166 0
-166 -168 0
-48 -139 0
-139 -168 0
-48 -168 0
-14 -231 0
-69 -231 0
-194 -231 0
-224 -231 0
-231 -235 0
-14 -69 0
-14 -194 0
-14 -224 0
-14 -235 0
-69 -194 0
-69 -224 0
-69 -235 0
-194 -224 0
-194 -235 0
-224 -235 0
-34 -125 0
-34 -112 0
-12 -34 0
-10 -34 0
-34 -237 0
-112 -125 0
-12 -125 0
-10 -125 0
-125 -237 0
-12 -112 0
-10 -112 0
-112 -237 0
-10 -12 0
-12 -237 0
-10 -237 0
-229 -249 0
-13 -179 0
-155 -179 0
-11 -179 0
-13 -155 0
-11 -13 0
-11 -155 0
-170 -180 0
-41 -180 0
-180 -205 0
-41 -170 0
-170 -205 0
-41 -205 0
-174 -177 0
-9 -177 0
-91 -177 0
-106 -177 0
-9 -174 0
-91 -174 0
-106 -174 0
-9 -91 0
-9 -106 0
-91 -106 0
-8 -154 0
-7 -8 0
-6 -8 0
-8 -184 0
-7 -154 0
-6 -154 0
-154 -184 0
-6 -7 0
-7 -184 0
-6 -184 0
-36 -67 0
-36 -109 0
-27 -36 0
-67 -109 0
-27 -67 0
-27 -109 0
-5 -100 0
-4 -100 0
-100 -206 0
-4 -5 0
-5 -206 0
-4 -206 0
-2 -3 0
-1 -3 0
-3 -215 0
-3 -217 0
-1 -2 0
-2 -215 0
-2 -217 0
-1 -215 0
-1 -217 0
-215 -217 0
-122 -150 0
-148 -150 0
-150 -232 0
-33 -150 0
-122 -148 0
-122 -232 0
-33 -122 0
-148 -232 0
-33 -148 0
-33 -232 0
-36 -100 0
-8 -177 0
-3 -177 0
-150 -177 0
-3 -8 0
-8 -150 0
-3 -150 0
-154 -174 0
-2 -174 0
-122 -174 0
-2 -154 0
-122 -154 0
-2 -122 0
-7 -9 0
-9 -67 0
-5 -9 0
-1 -9 0
-9 -148 0
-7 -67 0
-5 -7 0
-1 -7 0
-7 -148 0
-5 -67 0
-1 -67 0
-67 -148 0
-1 -5 0
-5 -148 0
-1 -148 0
-6 -91 0
-91 -109 0
-4 -91 0
-91 -215 0
-91 -232 0
-6 -109 0
-4 -6 0
-6 -215 0
-6 -232 0
-4 -109 0
-109 -215 0
-109 -232 0
-4 -215 0
-4 -232 0
-215 -232 0
-106 -184 0
-27 -106 0
-106 -206 0
-106 -217 0
-33 -106 0
-27 -184 0
-184 -206 0
-184 -217 0
-33 -184 0
-27 -206 0
-27 -217 0
-27 -33 0
-206 -217 0
-33 -206 0
-33 -217 0
-75 -115 0
-59 -75 0
-75 -199 0
-75 -255 0
-75 -258 0
-59 -115 0
-115 -199 0
-115 -255 0
-115 -258 0
-59 -199 0
-59 -255 0
-59 -258 0
-199 -255 0
-199 -258 0
-255 -258 0
-72 -121 0
-72 -95 0
-72 -92 0
-95 -121 0
-92 -121 0
-92 -95 0
-128 -270 0
-270 -273 0
-37 -270 0
-158 -270 0
-103 -270 0
-99 -270 0
-245 -270 0
-270 -276 0
-128 -273 0
-37 -128 0
-128 -158 0
-103 -128 0
-99 -128 0
-128 -245 0
-128 -276 0
-37 -273 0
-158 -273 0
-103 -273 0
-99 -273 0
-245 -273 0
-273 -276 0
-37 -158 0
-37 -103 0
-37 -99 0
-37 -245 0
-37 -276 0
-103 -158 0
-99 -158 0
-158 -245 0
-158 -276 0
-99 -103 0
-103 -245 0
-103 -276 0
-99 -245 0
-99 -276 0
-245 -276 0
-63 -66 0
-66 -131 0
-66 -162 0
-63 -131 0
-63 -162 0
-131 -162 0
-114 -214 0
-86 -114 0
-83 -114 0
-86 -214 0
-83 -214 0
-83 -86 0
-149 -231 0
-34 -149 0
-149 -181 0
-14 -149 0
-125 -149 0
-34 -231 0
-181 -231 0
-14 -231 0
-125 -231 0
-34 -181 0
-14 -34 0
-34 -125 0
-14 -181 0
-125 -181 0
-14 -125 0
-87 -136 0
-53 -136 0
-136 -198 0
-136 -190 0
-136 -257 0
-53 -87 0
-87 -198 0
-87 -190 0
-87 -257 0
-53 -198 0
-53 -190 0
-53 -257 0
-190 -198 0
-198 -257 0
-190 -257 0
-218 -220 0
-216 -218 0
-110 -218 0
-157 -218 0
-68 -218 0
-218 -274 0
-191 -218 0
-218 -275 0
-216 -220 0
-110 -220 0
-157 -220 0
-68 -220 0
-220 -274 0
-191 -220 0
-220 -275 0
-110 -216 0
-157 -216 0
-68 -216 0
-216 -274 0
-191 -216 0
-216 -275 0
-110 -157 0
-68 -110 0
-110 -274 0
-110 -191 0
-110 -275 0
-68 -157 0
-157 -274 0
-157 -191 0
-157 -275 0
-68 -274 0
-68 -191 0
-68 -275 0
-191 -274 0
-274 -275 0
-191 -275 0
-138 -142 0
-80 -142 0
-142 -161 0
-80 -138 0
-138 -161 0
-80 -161 0
-169 -234 0
-169 -236 0
-234 -236 0
-174 -177 0
-8 -177 0
-154 -177 0
-8 -174 0
-154 -174 0
-8 -154 0
-43 -146 0
-108 -146 0
-146 -265 0
-57 -146 0
-135 -146 0
-43 -108 0
-43 -265 0
-43 -57 0
-43 -135 0
-108 -265 0
-57 -108 0
-108 -135 0
-57 -265 0
-135 -265 0
-57 -135 0
-223 -242 0
-207 -223 0
-207 -242 0
-189 -226 0
-84 -226 0
-226 -239 0
-226 -247 0
-226 -251 0
-84 -189 0
-189 -239 0
-189 -247 0
-189 -251 0
-84 -239 0
-84 -247 0
-84 -251 0
-239 -247 0
-239 -251 0
-247 -251 0
-179 -180 0
-13 -179 0
-170 -179 0
-13 -180 0
-170 -180 0
-13 -170 0
-9 -91 0
-9 -106 0
-7 -9 0
-6 -9 0
-9 -184 0
-91 -106 0
-7 -91 0
-6 -91 0
-91 -184 0
-7 -106 0
-6 -106 0
-106 -184 0
-6 -7 0
-7 -184 0
-6 -184 0
-173 -178 0
-65 -178 0
-40 -178 0
-153 -178 0
-133 -178 0
-65 -173 0
-40 -173 0
-153 -173 0
-133 -173 0
-40 -65 0
-65 -153 0
-65 -133 0
-40 -153 0
-40 -133 0
-133 -153 0
-77 -192 0
-186 -192 0
-39 -192 0
-88 -192 0
-104 -192 0
-77 -186 0
-39 -77 0
-77 -88 0
-77 -104 0
-39 -186 0
-88 -186 0
-104 -186 0
-39 -88 0
-39 -104 0
-88 -104 0
-76 -126 0
-124 -126 0
-107 -126 0
-94 -126 0
-126 -151 0
-76 -124 0
-76 -107 0
-76 -94 0
-76 -151 0
-107 -124 0
-94 -124 0
-124 -151 0
-94 -107 0
-107 -151 0
-94 -151 0
-74 -116 0
-74 -145 0
-74 -282 0
-74 -98 0
-74 -256 0
-116 -145 0
-116 -282 0
-98 -116 0
-116 -256 0
-145 -282 0
-98 -145 0
-145 -256 0
-98 -282 0
-256 -282 0
-98 -256 0
-71 -120 0
-71 -96 0
-25 -71 0
-71 -127 0
-23 -71 0
-96 -120 0
-25 -120 0
-120 -127 0
-23 -120 0
-25 -96 0
-96 -127 0
-23 -96 0
-25 -127 0
-23 -25 0
-23 -127 0
-69 -166 0
-112 -166 0
-139 -166 0
-166 -194 0
-12 -166 0
-69 -112 0
-69 -139 0
-69 -194 0
-12 -69 0
-112 -139 0
-112 -194 0
-12 -112 0
-139 -194 0
-12 -139 0
-12 -194 0
-36 -100 0
-62 -90 0
-62 -143 0
-62 -118 0
-62 -97 0
-62 -81 0
-90 -143 0
-90 -118 0
-90 -97 0
-81 -90 0
-118 -143 0
-97 -143 0
-81 -143 0
-97 -118 0
-81 -118 0
-81 -97 0
-175 -266 0
-266 -267 0
-175 -267 0
-35 -134 0
-55 -60 0
-60 -278 0
-60 -123 0
-32 -60 0
-31 -60 0
-55 -278 0
-55 -123 0
-32 -55 0
-31 -55 0
-123 -278 0
-32 -278 0
-31 -278 0
-32 -123 0
-31 -123 0
-31 -32 0
-58 -137 0
-58 -283 0
-58 -93 0
-58 -165 0
-58 -197 0
-137 -283 0
-93 -137 0
-137 -165 0
-137 -197 0
-93 -283 0
-165 -283 0
-197 -283 0
-93 -165 0
-93 -197 0
-165 -197 0
-141 -144 0
-26 -144 0
-24 -144 0
-79 -144 0
-144 -160 0
-144 -196 0
-144 -201 0
-22 -144 0
-26 -141 0
-24 -141 0
-79 -141 0
-141 -160 0
-141 -196 0
-141 -201 0
-22 -141 0
-24 -26 0
-26 -79 0
-26 -160 0
-26 -196 0
-26 -201 0
-22 -26 0
-24 -79 0
-24 -160 0
-24 -196 0
-24 -201 0
-22 -24 0
-79 -160 0
-79 -196 0
-79 -201 0
-22 -79 0
-160 -196 0
-160 -201 0
-22 -160 0
-196 -201 0
-22 -196 0
-22 -201 0
-54 -164 0
-49 -54 0
-54 -172 0
-54 -64 0
-54 -61 0
-54 -268 0
-54 -269 0
-54 -202 0
-49 -164 0
-164 -172 0
-64 -164 0
-61 -164 0
-164 -268 0
-164 -269 0
-164 -202 0
-49 -172 0
-49 -64 0
-49 -61 0
-49 -268 0
-49 -269 0
-49 -202 0
-64 -172 0
-61 -172 0
-172 -268 0
-172 -269 0
-172 -202 0
-61 -64 0
-64 -268 0
-64 -269 0
-64 -202 0
-61 -268 0
-61 -269 0
-61 -202 0
-268 -269 0
-202 -268 0
-202 -269 0
-28 -47 0
-45 -182 0
-50 -52 0
-44 -52 0
-30 -52 0
-29 -52 0
-52 -152 0
-52 -260 0
-52 -284 0
-52 -203 0
-44 -50 0
-30 -50 0
-29 -50 0
-50 -152 0
-50 -260 0
-50 -284 0
-50 -203 0
-30 -44 0
-29 -44 0
-44 -152 0
-44 -260 0
-44 -284 0
-44 -203 0
-29 -30 0
-30 -152 0
-30 -260 0
-30 -284 0
-30 -203 0
-29 -152 0
-29 -260 0
-29 -284 0
-29 -203 0
-152 -260 0
-152 -284 0
-152 -203 0
-260 -284 0
-203 -260 0
-203 -284 0
-42 -51 0
-51 -73 0
-51 -56 0
-21 -51 0
-51 -204 0
-42 -73 0
-42 -56 0
-21 -42 0
-42 -204 0
-56 -73 0
-21 -73 0
-73 -204 0
-21 -56 0
-56 -204 0
-21 -204 0
-41 -155 0
-11 -155 0
-155 -205 0
-11 -41 0
-41 -205 0
-11 -205 0
-67 -109 0
-27 -67 0
-5 -67 0
-4 -67 0
-67 -206 0
-27 -109 0
-5 -109 0
-4 -109 0
-109 -206 0
-5 -27 0
-4 -27 0
-27 -206 0
-4 -5 0
-5 -206 0
-4 -206 0
-208 -261 0
-209 -261 0
-183 -261 0
-46 -261 0
-261 -264 0
-208 -209 0
-183 -208 0
-46 -208 0
-208 -264 0
-183 -209 0
-46 -209 0
-209 -264 0
-46 -183 0
-183 -264 0
-46 -264 0
-171 -279 0
-167 -279 0
-279 -280 0
-233 -279 0
-140 -279 0
-167 -171 0
-171 -280 0
-171 -233 0
-140 -171 0
-167 -280 0
-167 -233 0
-140 -167 0
-233 -280 0
-140 -280 0
-140 -233 0
-185 -281 0
-219 -281 0
-221 -281 0
-111 -281 0
-156 -281 0
-185 -219 0
-185 -221 0
-111 -185 0
-156 -185 0
-219 -221 0
-111 -219 0
-156 -219 0
-111 -221 0
-156 -221 0
-111 -156 0
-78 -193 0
-187 -193 0
-17 -193 0
-89 -193 0
-105 -193 0
-78 -187 0
-17 -78 0
-78 -89 0
-78 -105 0
-17 -187 0
-89 -187 0
-105 -187 0
-17 -89 0
-17 -105 0
-89 -105 0
-48 -224 0
-10 -48 0
-48 -168 0
-48 -235 0
-48 -237 0
-10 -224 0
-168 -224 0
-224 -235 0
-224 -237 0
-10 -168 0
-10 -235 0
-10 -237 0
-168 -235 0
-168 -237 0
-235 -237 0
-262 -263 0
-210 -262 0
-225 -262 0
-228 -262 0
-230 -262 0
-210 -263 0
-225 -263 0
-228 -263 0
-230 -263 0
-210 -225 0
-210 -228 0
-210 -230 0
-225 -228 0
-225 -230 0
-228 -230 0
-70 -113 0
-70 -211 0
-70 -195 0
-70 -241 0
-70 -250 0
-113 -211 0
-113 -195 0
-113 -241 0
-113 -250 0
-195 -211 0
-211 -241 0
-211 -250 0
-195 -241 0
-195 -250 0
-241 -250 0
-119 -271 0
-38 -271 0
-222 -271 0
-101 -271 0
-243 -271 0
-38 -119 0
-119 -222 0
-101 -119 0
-119 -243 0
-38 -222 0
-38 -101 0
-38 -243 0
-101 -222 0
-222 -243 0
-101 -243 0
-117 -132 0
-132 -238 0
-132 -246 0
-117 -238 0
-117 -246 0
-238 -246 0
-19 -20 0
-20 -212 0
-20 -227 0
-20 -188 0
-20 -85 0
-20 -240 0
-20 -248 0
-20 -252 0
-19 -212 0
-19 -227 0
-19 -188 0
-19 -85 0
-19 -240 0
-19 -248 0
-19 -252 0
-212 -227 0
-188 -212 0
-85 -212 0
-212 -240 0
-212 -248 0
-212 -252 0
-188 -227 0
-85 -227 0
-227 -240 0
-227 -248 0
-227 -252 0
-85 -188 0
-188 -240 0
-188 -248 0
-188 -252 0
-85 -240 0
-85 -248 0
-85 -252 0
-240 -248 0
-240 -252 0
-248 -252 0
-229 -249 0
-2 -3 0
-3 -150 0
-3 -122 0
-2 -150 0
-2 -122 0
-122 -150 0
-200 -254 0
-200 -259 0
-254 -259 0
-129 -272 0
-129 -159 0
-102 -129 0
-129 -244 0
-129 -277 0
-159 -272 0
-102 -272 0
-244 -272 0
-272 -277 0
-102 -159 0
-159 -244 0
-159 -277 0
-102 -244 0
-102 -277 0
-244 -277 0
-130 -163 0
-130 -285 0
-130 -286 0
-130 -253 0
-130 -287 0
-163 -285 0
-163 -286 0
-163 -253 0
-163 -287 0
-285 -286 0
-253 -285 0
-285 -287 0
-253 -286 0
-286 -287 0
-253 -287 0
-18 -213 0
-18 -176 0
-18 -82 0
-16 -18 0
-15 -18 0
-176 -213 0
-82 -213 0
-16 -213 0
-15 -213 0
-82 -176 0
-16 -176 0
-15 -176 0
-16 -82 0
-15 -82 0
-15 -16 0
-1 -215 0
-1 -217 0
-1 -148 0
-1 -232 0
-1 -33 0
-215 -217 0
-148 -215 0
-215 -232 0
-33 -215 0
-148 -217 0
-217 -232 0
-33 -217 0
-148 -232 0
-33 -148 0
-33 -232 0
